Minimize
  - 81 y_0 - 88 y_1 - 75 y_2 - 96 y_3 - 45 y_4 - 46 y_5 - 56 y_6 - 109 y_7
   - 53 y_8 - 88 y_9 - 94 y_10 - 93 y_11 - 84 y_12 - 21 y_13 - 89 y_14
   - 38 y_15 - 91 y_16 - 97 y_17 - 116 y_18 - 80 y_19 - 16 y_20 - 82 y_21
   - 25 y_22 - 75 y_23 - 38 y_24 - 52 y_25 - 33 y_26 - 42 y_27 - 80 y_28
   - 106 y_29 - 100 y_30 - 5 y_31 - 49 y_32 - 87 y_33 - 101 y_34 - 23 y_35
   - 109 y_36 - 65 y_37 - 86 y_38 - 117 y_39 - 36 y_40 - 85 y_41 - 95 y_42
   - 74 y_43 - 61 y_44 - 40 y_45 - 58 y_46 - 30 y_47 - 55 y_48 - 42 y_49
   - 99 y_50 - 64 y_51 - 77 y_52 - 34 y_53 - 21 y_54 - 93 y_55 - 66 y_56
   - 74 y_57 - 128 y_58 - 95 y_59 - 62 y_60 - 88 y_61 - 78 y_62 - 28 y_63
   - 87 y_64 - 88 y_65 - 113 y_66 - 40 y_67 - 27 y_68 - 69 y_69 - 47 y_70
   - 24 y_71 - 85 y_72 - 51 y_73 - 16 y_74 - 95 y_75 - 88 y_76 - 33 y_77
   - 16 y_78 - 62 y_79 - 101 y_80 - 53 y_81 - 125 y_82 - 21 y_83 - 106 y_84
   - 37 y_85 - 66 y_86 - 77 y_87 - 92 y_88 - 103 y_89 - 103 y_90 - 109 y_91
   - 73 y_92 - 79 y_93 - 79 y_94 - 42 y_96 - 101 y_97 - 66 y_98 - 32 y_99
   + 6820 Constant
Subject To
 c_0: y_38 = 1
 c_1_0: y_0 >= 1
 c_1_1: y_1 + y_9 >= 1
 c_1_2: y_2 >= 1
 c_1_3: y_3 + y_42 >= 1
 c_1_4: y_4 + y_5 >= 1
 c_1_5: y_4 + y_5 >= 1
 c_1_6: y_6 >= 1
 c_1_7: y_7 + y_66 >= 1
 c_1_8: y_8 + y_32 + y_73 >= 1
 c_1_9: y_1 + y_9 >= 1
 c_1_10: y_10 >= 1
 c_1_11: y_11 >= 1
 c_1_12: y_12 >= 1
 c_1_13: y_13 + y_20 + y_35 + y_54 + y_71 + y_74 + y_83 >= 1
 c_1_14: y_14 >= 1
 c_1_15: y_15 >= 1
 c_1_16: y_16 >= 1
 c_1_17: y_17 + y_50 >= 1
 c_1_18: y_18 + y_39 >= 1
 c_1_19: y_19 >= 1
 c_1_20: y_13 + y_20 + y_74 + y_83 >= 1
 c_1_21: y_21 + y_41 >= 1
 c_1_22: y_22 + y_63 + y_68 >= 1
 c_1_23: y_23 >= 1
 c_1_24: y_24 + y_40 >= 1
 c_1_25: y_25 >= 1
 c_1_26: y_26 + y_77 >= 1
 c_1_27: y_27 + y_45 >= 1
 c_1_28: y_28 >= 1
 c_1_29: y_29 + y_90 >= 1
 c_1_30: y_30 + y_89 >= 1
 c_1_31: y_31 + y_95 >= 1
 c_1_32: y_8 + y_32 + y_73 >= 1
 c_1_33: y_33 >= 1
 c_1_34: y_34 >= 1
 c_1_35: y_13 + y_35 + y_83 >= 1
 c_1_36: y_36 + y_91 >= 1
 c_1_37: y_37 + y_79 >= 1
 c_1_38: y_38 + y_76 >= 1
 c_1_39: y_18 + y_39 >= 1
 c_1_40: y_24 + y_40 + y_45 + y_77 >= 1
 c_1_41: y_21 + y_41 >= 1
 c_1_42: y_3 + y_42 >= 1
 c_1_43: y_43 >= 1
 c_1_44: y_44 >= 1
 c_1_45: y_27 + y_40 + y_45 >= 1
 c_1_46: y_46 >= 1
 c_1_47: y_47 >= 1
 c_1_48: y_48 >= 1
 c_1_49: y_49 + y_67 >= 1
 c_1_50: y_17 + y_50 >= 1
 c_1_51: y_51 + y_69 >= 1
 c_1_52: y_52 >= 1
 c_1_53: y_53 >= 1
 c_1_54: y_13 + y_54 + y_71 >= 1
 c_1_55: y_55 >= 1
 c_1_56: y_56 >= 1
 c_1_57: y_57 >= 1
 c_1_58: y_58 + y_82 >= 1
 c_1_59: y_59 + y_75 >= 1
 c_1_60: y_60 + y_98 >= 1
 c_1_61: y_61 >= 1
 c_1_62: y_62 + y_87 >= 1
 c_1_63: y_22 + y_63 + y_68 >= 1
 c_1_64: y_64 >= 1
 c_1_65: y_65 >= 1
 c_1_66: y_7 + y_66 >= 1
 c_1_67: y_49 + y_67 >= 1
 c_1_68: y_22 + y_63 + y_68 + y_99 >= 1
 c_1_69: y_51 + y_69 >= 1
 c_1_70: y_70 + y_96 >= 1
 c_1_71: y_13 + y_54 + y_71 >= 1
 c_1_72: y_72 >= 1
 c_1_73: y_8 + y_32 + y_73 >= 1
 c_1_74: y_13 + y_20 + y_74 >= 1
 c_1_75: y_59 + y_75 >= 1
 c_1_76: y_38 + y_76 >= 1
 c_1_77: y_26 + y_40 + y_77 >= 1
 c_1_78: y_78 >= 1
 c_1_79: y_37 + y_79 >= 1
 c_1_80: y_80 >= 1
 c_1_81: y_81 >= 1
 c_1_82: y_58 + y_82 >= 1
 c_1_83: y_13 + y_20 + y_35 + y_83 >= 1
 c_1_84: y_84 >= 1
 c_1_85: y_85 + y_99 >= 1
 c_1_86: y_86 >= 1
 c_1_87: y_62 + y_87 >= 1
 c_1_88: y_88 >= 1
 c_1_89: y_30 + y_89 >= 1
 c_1_90: y_29 + y_90 + y_97 >= 1
 c_1_91: y_36 + y_91 >= 1
 c_1_92: y_92 >= 1
 c_1_93: y_93 >= 1
 c_1_94: y_94 >= 1
 c_1_95: y_31 + y_95 >= 1
 c_1_96: y_70 + y_96 >= 1
 c_1_97: y_90 + y_97 >= 1
 c_1_98: y_60 + y_98 >= 1
 c_1_99: y_68 + y_85 + y_99 >= 1
Bounds
 Constant = 1
Binaries
 y_0 y_1 y_2 y_3 y_4 y_5 y_6 y_7 y_8 y_9 y_10 y_11 y_12 y_13 y_14 y_15 y_16
 y_17 y_18 y_19 y_20 y_21 y_22 y_23 y_24 y_25 y_26 y_27 y_28 y_29 y_30 y_31
 y_32 y_33 y_34 y_35 y_36 y_37 y_38 y_39 y_40 y_41 y_42 y_43 y_44 y_45 y_46
 y_47 y_48 y_49 y_50 y_51 y_52 y_53 y_54 y_55 y_56 y_57 y_58 y_59 y_60 y_61
 y_62 y_63 y_64 y_65 y_66 y_67 y_68 y_69 y_70 y_71 y_72 y_73 y_74 y_75 y_76
 y_77 y_78 y_79 y_80 y_81 y_82 y_83 y_84 y_85 y_86 y_87 y_88 y_89 y_90 y_91
 y_92 y_93 y_94 y_95 y_96 y_97 y_98 y_99
End
